NAME: path_n8
TYPE: TSP
DIMENSION: 8
EDGE_WEIGHT_TYPE: EUC_2D
NODE_COORD_SECTION
1 0.000000 0.000000
2 10.000000 0.000000
3 20.000000 0.000000
4 30.000000 0.000000
5 40.000000 0.000000
6 50.000000 0.000000
7 60.000000 0.000000
8 70.000000 0.000000
EOF
